sat
(
(define-fun S () String "")
(define-fun W () String "")
(define-fun N () String "")
(define-fun J () String "")
(define-fun T () String "")
(define-fun I () String "aaaaaaaaaaaaaaaaaaaaaaaabaaaaaaaaaaaababbb")
(define-fun R () String "")
(define-fun K () String "")
(define-fun V () String "")
(define-fun U () String "")
(define-fun L () String "")
(define-fun Y () String "aaaaaaaaaaaabaaaaaaaabaaaabbbaa")
(define-fun Q () String "")
)
